c FILE /home/rafael/Documents/HappySet/MIHS/inputs/happygen/output/graph_scale_free_k3_p0.4_v50_20241127_082417.txt
c SOURCE This is a scale-free graph formed for the happy graph colouring problem.
c DESCRIPTION It was generated using the problem generator of Rhyd Lewis
c
c GRAPH STATS
c Seed                             = 1545955025
c Number of Nodes                  = 50
c Number of colours k              = 3
c Number of pre-assignments        = 20
c Number of links per new node     = 5
c Density                          = 0.191837
c 
c The degrees of nodes 1 to 50, respectively, are as follows 
c [26, 24, 21, 21, 20, 19, 16, 15, 15, 13, 12, 11, 11, 11, 11, 10, 10, 9, 9, 9, 8, 8, 7, 7, 7, 7, 
c  7, 7, 6, 6, 6, 6, 6, 6, 6, 6, 6, 5, 5, 5, 5, 5, 5, 5, 5, 5, 5, 5, 5, 5] 
c  
p edge 50 235 3
e 1 2
e 1 3
e 1 5
e 1 6
e 1 7
e 1 8
e 1 9
e 1 11
e 1 12
e 1 13
e 1 15
e 1 17
e 1 22
e 1 23
e 1 27
e 1 28
e 1 29
e 1 30
e 1 31
e 1 32
e 1 35
e 1 36
e 1 39
e 1 40
e 1 48
e 1 50
e 2 3
e 2 4
e 2 5
e 2 7
e 2 8
e 2 10
e 2 13
e 2 14
e 2 16
e 2 18
e 2 19
e 2 21
e 2 23
e 2 26
e 2 29
e 2 31
e 2 34
e 2 35
e 2 40
e 2 44
e 2 46
e 2 47
e 2 50
e 3 4
e 3 5
e 3 7
e 3 8
e 3 10
e 3 11
e 3 12
e 3 16
e 3 17
e 3 19
e 3 20
e 3 21
e 3 23
e 3 24
e 3 25
e 3 30
e 3 32
e 3 40
e 3 41
e 4 5
e 4 6
e 4 7
e 4 8
e 4 9
e 4 10
e 4 12
e 4 14
e 4 25
e 4 26
e 4 27
e 4 29
e 4 31
e 4 32
e 4 33
e 4 37
e 4 42
e 4 44
e 4 47
e 5 6
e 5 7
e 5 8
e 5 9
e 5 12
e 5 13
e 5 14
e 5 21
e 5 25
e 5 26
e 5 28
e 5 30
e 5 31
e 5 38
e 5 44
e 5 49
e 6 7
e 6 10
e 6 11
e 6 12
e 6 14
e 6 15
e 6 18
e 6 19
e 6 26
e 6 27
e 6 28
e 6 34
e 6 37
e 6 46
e 6 48
e 6 49
e 7 8
e 7 10
e 7 11
e 7 13
e 7 22
e 7 24
e 7 32
e 7 41
e 7 42
e 7 43
e 8 9
e 8 10
e 8 21
e 8 30
e 8 32
e 8 33
e 8 34
e 8 37
e 8 45
e 9 10
e 9 13
e 9 17
e 9 19
e 9 23
e 9 24
e 9 31
e 9 34
e 9 36
e 9 43
e 9 46
e 10 11
e 10 14
e 10 15
e 10 16
e 10 35
e 10 41
e 11 16
e 11 18
e 11 20
e 11 24
e 11 33
e 11 35
e 11 50
e 12 16
e 12 17
e 12 20
e 12 21
e 12 48
e 12 49
e 13 18
e 13 22
e 13 25
e 13 39
e 13 40
e 13 43
e 14 15
e 14 24
e 14 28
e 14 29
e 14 38
e 14 39
e 15 17
e 15 20
e 15 22
e 15 24
e 15 36
e 15 37
e 15 42
e 16 27
e 16 29
e 16 30
e 16 45
e 16 46
e 17 26
e 17 38
e 17 39
e 17 43
e 17 50
e 18 19
e 18 23
e 18 29
e 18 38
e 18 46
e 19 27
e 19 34
e 19 42
e 19 47
e 20 23
e 20 25
e 20 33
e 20 43
e 20 44
e 21 22
e 21 45
e 21 47
e 22 28
e 22 35
e 22 36
e 23 36
e 24 42
e 25 38
e 25 45
e 26 41
e 26 48
e 27 41
e 27 49
e 28 33
e 28 39
e 30 44
e 31 37
e 32 40
e 33 50
e 34 48
e 35 49
e 36 45
e 37 47
n 7 3
n 9 1
n 12 1
n 15 1
n 17 1
n 18 1
n 21 1
n 23 1
n 27 3
n 28 2
n 29 1
n 30 2
n 31 1
n 32 3
n 33 2
n 36 1
n 38 1
n 40 3
n 44 2
n 48 1
